\ENCODING=ISO-8859-1
\Problem name: Topo1

Minimize
 obj: Z
Subject To
 demand1#0:     x1_1 + x1_2  = 0
 demand2#1:     x2_1 + x2_2  = 0
 demand3#2:     x3_1 + x3_2  = 0
 demand4#3:     x4_1 + x4_2  = 0
 demand5#4:     x5_1 + x5_2  = 0
 demand6#5:     x6_1 + x6_2  = 0
 demand7#6:     x7_1 + x7_2  = 0
 demand8#7:     x8_1 + x8_2  = 0
 demand9#8:     x9_1 + x9_2  = 0
 demand10#9:    x10_1 + x10_2  = 0
 demand11#10:   x11_1 + x11_2  = 0
 demand12#11:   x12_1 + x12_2  = 0
 demand13#12:   x13_1 + x13_2  = 0
 demand14#13:   x14_1 + x14_2  = 0
 demand15#14:   x15_1 + x15_2  = 0
 demand16#15:   x16_1 + x16_2  = 0
 demand17#16:   x17_1 + x17_2  = 0
 demand18#17:   x18_1 + x18_2  = 0
 demand19#18:   x19_1 + x19_2  = 0
 demand20#19:   x20_1 + x20_2  = 0
 demand21#20:   x21_1 + x21_2  = 0
 demand22#21:   x22_1 + x22_2  = 0
 demand23#22:   x23_1 + x23_2  = 0
 demand24#23:   x24_1 + x24_2  = 0
 demand25#24:   x25_1 + x25_2  = 0
 demand26#25:   x26_1 + x26_2  = 0
 demand27#26:   x27_1 + x27_2  = 0
 demand28#27:   x28_1 + x28_2  = 0
 demand29#28:   x29_1 + x29_2  = 0
 demand30#29:   x30_1 + x30_2  = 31
 demand31#30:   x31_1 + x31_2  = 0
 demand32#31:   x32_1 + x32_2  = 0
 demand33#32:   x33_1 + x33_2  = 0
 demand34#33:   x34_1 + x34_2  = 1
 demand35#34:   x35_1 + x35_2  = 9
 demand36#35:   x36_1 + x36_2  = 0
 demand37#36:   x37_1 + x37_2  = 0
 demand38#37:   x38_1 + x38_2  = 0
 demand39#38:   x39_1 + x39_2  = 0
 demand40#39:   x40_1 + x40_2  = 0
 demand41#40:   x41_1 + x41_2  = 0
 demand42#41:   x42_1 + x42_2  = 0
 demand43#42:   x43_1 + x43_2  = 44
 demand44#43:   x44_1 + x44_2  = 0
 demand45#44:   x45_1 + x45_2  = 0
 demand46#45:   x46_1 + x46_2  = 0
 demand47#46:   x47_1 + x47_2  = 0
 demand48#47:   x48_1 + x48_2  = 0
 demand49#48:   x49_1 + x49_2  = 0
 demand50#49:   x50_1 + x50_2  = 0
 demand51#50:   x51_1 + x51_2  = 42
 demand52#51:   x52_1 + x52_2  = 0
 demand53#52:   x53_1 + x53_2  = 0
 demand54#53:   x54_1 + x54_2  = 21
 demand55#54:   x55_1 + x55_2  = 0
 demand56#55:   x56_1 + x56_2  = 0
 demand57#56:   x57_1 + x57_2  = 0
 demand58#57:   x58_1 + x58_2  = 68
 demand59#58:   x59_1 + x59_2  = 0
 demand60#59:   x60_1 + x60_2  = 0
 demand61#60:   x61_1 + x61_2  = 1
 demand62#61:   x62_1 + x62_2  = 0
 demand63#62:   x63_1 + x63_2  = 0
 demand64#63:   x64_1 + x64_2  = 0
 link1m5#64:    x1_1 + x2_1 + x3_1 + x4_1 + x5_2 + x6_2 + x7_2 + x8_2 + x17_2
                + x18_2 + x19_2 + x20_2 + x29_2 + x30_2 + x31_2 + x32_2 + x49_2
                + x50_2 + x51_2 + x52_2 - 100 Z <= 0
 link5m13#65:   x1_1 + x1_2 + x2_1 + x2_2 + x17_1 + x17_2 + x18_1 + x18_2
                + x33_2 + x34_2 + x49_2 + x50_2 - 100 Z <= 0
 link13m21#66:  x1_1 + x1_2 + x17_1 + x17_2 + x33_1 + x33_2 + x49_1 + x49_2
                - 100 Z <= 0
 link1m10#67:   x1_2 + x2_2 + x3_2 + x4_2 + x9_1 + x10_1 + x11_1 + x12_1
                + x17_2 + x18_2 + x19_2 + x20_2 - 100 Z <= 0
 link2m10#68:   x1_2 + x2_2 + x3_2 + x4_2 + x17_2 + x18_2 + x19_2 + x20_2
                + x25_1 + x26_1 + x27_1 + x28_1 - 100 Z <= 0
 link2m5#69:    x1_2 + x2_2 + x3_2 + x4_2 + x5_2 + x6_2 + x7_2 + x8_2 + x17_1
                + x18_1 + x19_1 + x20_1 + x29_2 + x30_2 + x31_2 + x32_2 + x33_2
                + x34_2 + x35_2 + x36_2 - 100 Z <= 0
 link13m22#70:  x2_1 + x2_2 + x18_1 + x18_2 + x34_1 + x34_2 + x50_1 + x50_2
                - 100 Z <= 0
 link5m14#71:   x3_1 + x3_2 + x4_1 + x4_2 + x19_1 + x19_2 + x20_1 + x20_2
                + x35_2 + x36_2 + x51_2 + x52_2 - 100 Z <= 0
 link14m23#72:  x3_1 + x3_2 + x19_1 + x19_2 + x35_1 + x35_2 + x51_1 + x51_2
                - 100 Z <= 0
 link14m24#73:  x4_1 + x4_2 + x20_1 + x20_2 + x36_1 + x36_2 + x52_1 + x52_2
                - 100 Z <= 0
 link1m8#74:    x5_1 + x6_1 + x7_1 + x8_1 + x9_2 + x10_2 + x11_2 + x12_2
                + x13_2 + x14_2 + x15_2 + x16_2 + x49_2 + x50_2 + x51_2 + x52_2
                + x61_2 + x62_2 + x63_2 + x64_2 - 100 Z <= 0
 link8m15#75:   x5_1 + x6_1 + x53_1 + x54_1 - 100 Z <= 0
 link15m25#76:  x5_1 + x5_2 + x21_1 + x21_2 + x37_1 + x37_2 + x53_1 + x53_2
                - 100 Z <= 0
 link2m7#77:    x5_2 + x6_2 + x7_2 + x8_2 + x21_1 + x22_1 + x23_1 + x24_1
                + x25_2 + x26_2 + x27_2 + x28_2 + x33_2 + x34_2 + x35_2 + x36_2
                + x37_2 + x38_2 + x39_2 + x40_2 - 100 Z <= 0
 link7m15#78:   x5_2 + x6_2 + x21_1 + x21_2 + x22_1 + x22_2 + x37_1 + x37_2
                + x38_1 + x38_2 + x53_2 + x54_2 - 100 Z <= 0
 link15m26#79:  x6_1 + x6_2 + x22_1 + x22_2 + x38_1 + x38_2 + x54_1 + x54_2
                - 100 Z <= 0
 link8m16#80:   x7_1 + x8_1 + x55_1 + x56_1 - 100 Z <= 0
 link16m27#81:  x7_1 + x7_2 + x23_1 + x23_2 + x39_1 + x39_2 + x55_1 + x55_2
                - 100 Z <= 0
 link7m16#82:   x7_2 + x8_2 + x23_1 + x23_2 + x24_1 + x24_2 + x39_1 + x39_2
                + x40_1 + x40_2 + x55_2 + x56_2 - 100 Z <= 0
 link16m28#83:  x8_1 + x8_2 + x24_1 + x24_2 + x40_1 + x40_2 + x56_1 + x56_2
                - 100 Z <= 0
 link10m17#84:  x9_1 + x10_1 + x25_1 + x26_1 - 100 Z <= 0
 link17m29#85:  x9_1 + x9_2 + x25_1 + x25_2 + x41_1 + x41_2 + x57_1 + x57_2
                - 100 Z <= 0
 link4m8#86:    x9_2 + x10_2 + x11_2 + x12_2 + x13_2 + x14_2 + x15_2 + x16_2
                + x49_2 + x50_2 + x51_2 + x52_2 + x53_1 + x54_1 + x55_1 + x56_1
                + x61_2 + x62_2 + x63_2 + x64_2 - 100 Z <= 0
 link4m9#87:    x9_2 + x10_2 + x11_2 + x12_2 + x41_2 + x42_2 + x43_2 + x44_2
                + x57_1 + x58_1 + x59_1 + x60_1 - 100 Z <= 0
 link9m17#88:   x9_2 + x10_2 + x25_2 + x26_2 + x41_1 + x41_2 + x42_1 + x42_2
                + x57_1 + x57_2 + x58_1 + x58_2 - 100 Z <= 0
 link17m30#89:  x10_1 + x10_2 + x26_1 + x26_2 + x42_1 + x42_2 + x58_1 + x58_2
                - 100 Z <= 0
 link10m18#90:  x11_1 + x12_1 + x27_1 + x28_1 - 100 Z <= 0
 link18m31#91:  x11_1 + x11_2 + x27_1 + x27_2 + x43_1 + x43_2 + x59_1 + x59_2
                - 100 Z <= 0
 link9m18#92:   x11_2 + x12_2 + x27_2 + x28_2 + x43_1 + x43_2 + x44_1 + x44_2
                + x59_1 + x59_2 + x60_1 + x60_2 - 100 Z <= 0
 link18m32#93:  x12_1 + x12_2 + x28_1 + x28_2 + x44_1 + x44_2 + x60_1 + x60_2
                - 100 Z <= 0
 link1m11#94:   x13_1 + x14_1 + x15_1 + x16_1 + x29_2 + x30_2 + x31_2 + x32_2
                + x61_2 + x62_2 + x63_2 + x64_2 - 100 Z <= 0
 link11m19#95:  x13_1 + x13_2 + x14_1 + x14_2 + x29_1 + x29_2 + x30_1 + x30_2
                + x45_1 + x45_2 + x46_1 + x46_2 + x61_1 + x61_2 + x62_1 + x62_2
                - 100 Z <= 0
 link19m33#96:  x13_1 + x13_2 + x29_1 + x29_2 + x45_1 + x45_2 + x61_1 + x61_2
                - 100 Z <= 0
 link4m11#97:   x13_2 + x14_2 + x15_2 + x16_2 + x45_2 + x46_2 + x47_2 + x48_2
                + x61_1 + x62_1 + x63_1 + x64_1 - 100 Z <= 0
 link19m34#98:  x14_1 + x14_2 + x30_1 + x30_2 + x46_1 + x46_2 + x62_1 + x62_2
                - 100 Z <= 0
 link11m20#99:  x15_1 + x15_2 + x16_1 + x16_2 + x31_1 + x31_2 + x32_1 + x32_2
                + x47_1 + x47_2 + x48_1 + x48_2 + x63_1 + x63_2 + x64_1 + x64_2
                - 100 Z <= 0
 link20m35#100: x15_1 + x15_2 + x31_1 + x31_2 + x47_1 + x47_2 + x63_1 + x63_2
                - 100 Z <= 0
 link20m36#101: x16_1 + x16_2 + x32_1 + x32_2 + x48_1 + x48_2 + x64_1 + x64_2
                - 100 Z <= 0
 link2m12#102:  x21_2 + x22_2 + x23_2 + x24_2 + x29_1 + x30_1 + x31_1 + x32_1
                + x37_2 + x38_2 + x39_2 + x40_2 - 100 Z <= 0
 link3m12#103:  x21_2 + x22_2 + x23_2 + x24_2 + x37_2 + x38_2 + x39_2 + x40_2
                + x45_1 + x46_1 + x47_1 + x48_1 - 100 Z <= 0
 link3m7#104:   x21_2 + x22_2 + x23_2 + x24_2 + x25_2 + x26_2 + x27_2 + x28_2
                + x33_2 + x34_2 + x35_2 + x36_2 + x37_1 + x38_1 + x39_1 + x40_1
                + x53_2 + x54_2 + x55_2 + x56_2 - 100 Z <= 0
 link3m9#105:   x25_2 + x26_2 + x27_2 + x28_2 + x41_1 + x42_1 + x43_1 + x44_1
                + x57_2 + x58_2 + x59_2 + x60_2 - 100 Z <= 0
 link11m12#106: x29_1 + x30_1 + x31_1 + x32_1 + x45_1 + x46_1 + x47_1 + x48_1
                - 100 Z <= 0
 link3m6#107:   x33_1 + x34_1 + x35_1 + x36_1 + x41_2 + x42_2 + x43_2 + x44_2
                + x45_2 + x46_2 + x47_2 + x48_2 + x53_2 + x54_2 + x55_2 + x56_2
                + x57_2 + x58_2 + x59_2 + x60_2 - 100 Z <= 0
 link6m13#108:  x33_1 + x34_1 + x49_1 + x50_1 - 100 Z <= 0
 link6m14#109:  x35_1 + x36_1 + x51_1 + x52_1 - 100 Z <= 0
 link4m6#110:   x41_2 + x42_2 + x43_2 + x44_2 + x45_2 + x46_2 + x47_2 + x48_2
                + x49_1 + x50_1 + x51_1 + x52_1 + x53_2 + x54_2 + x55_2 + x56_2
                + x57_2 + x58_2 + x59_2 + x60_2 - 100 Z <= 0
End
